c This cnf file is generated with the following input: k = 3, n = 150, r = 0.2
p cnf 150 30
-68 4 117 0
96 -97 -16 0
-37 -117 -109 0
-2 97 -62 0
103 -90 111 0
-145 -17 -132 0
117 -135 -14 0
-4 -91 15 0
99 -21 -32 0
50 100 -41 0
22 -106 142 0
-114 -102 -76 0
-145 19 -101 0
-19 -55 44 0
67 -73 74 0
112 37 6 0
113 -71 126 0
-146 -59 -96 0
116 -47 -128 0
-129 117 -11 0
117 -90 -43 0
-131 -35 53 0
-85 100 56 0
-150 -30 62 0
114 88 -95 0
-7 -90 -60 0
-67 7 29 0
99 100 109 0
-113 -56 24 0
-114 78 95 0
